%%
% Autogenerated by /opt/prj/battleships-ai/src/server/solver.py, instance 4 10x10 [4] #22 <c1a1r1ze5n2l5o>
% Source: https://www.puzzle-battleships.com/?size=4
%%

size = 10;
hints_num = 6;
hints = [| 1, 4 | 1, 6 | 3, 5 | 6, 7 | 8, 2 | 9, 5 |];
ships_num = 10;

constr_rows = [3, 0, 2, 3, 3, 2, 1, 5, 1, 0];
constr_cols = [1, 2, 5, 1, 3, 1, 3, 0, 4, 0];

given_ships = [|
<>, <>, <>, <>, 1, |
<>, <>, <>, <>, 1, |
<>, <>, <>, <>, 1, |
<>, <>, <>, <>, 1, |
<>, <>, <>, <>, 2, |
<>, <>, <>, <>, 2, |
<>, <>, <>, <>, 2, |
<>, <>, <>, <>, 3, |
<>, <>, <>, <>, 3, |
<>, <>, <>, <>, 4  |];

